53 50 49 57 48 41 39 50 44 51 47 52 55 52 49 54 56 46 48 50 44 52 42 52 46 47 51 53 40 55 38 47 50 60 42 56 56 53 50 42 45 56 55 47 45 58 54 49 47 50 61 57 53 48 44 49 54 48 55 49 48 51 54 49 51 43 46 40 42 47 60 52 50 51 47 44 57 54 55 45 49 43 57 50 53 55 47 47 44 37 54 42 58 46 48 48 52 49 55 54 